SCIP version 9.2.1 [precision: 8 byte] [memory: block] [mode: optimized] [LP solver: Soplex 7.1.3] [GitHash: 0d2d3c7c2d]
Copyright (c) 2002-2025 Zuse Institute Berlin (ZIB)

External libraries: 
  Soplex 7.1.3         Linear Programming Solver developed at Zuse Institute Berlin (soplex.zib.de) [GitHash: 60fd96f2]
  CppAD 20180000.0     Algorithmic Differentiation of C++ algorithms developed by B. Bell (github.com/coin-or/CppAD)
  ZLIB 1.2.11          General purpose compression library by J. Gailly and M. Adler (zlib.net)
  TinyCThread 1.2      small portable implementation of the C11 threads API (tinycthread.github.io)
  GMP 6.2.1            GNU Multiple Precision Arithmetic Library developed by T. Granlund (gmplib.org)
  ZIMPL 3.6.2          Zuse Institute Mathematical Programming Language developed by T. Koch (zimpl.zib.de)
  AMPL/MP 690e9e7      AMPL .nl file reader library (github.com/ampl/mp)
  PaPILO 2.4.1         parallel presolve for integer and linear optimization (github.com/scipopt/papilo) (built with TBB) [GitHash: 11974394]
  Nauty 2.8.8          Computing Graph Automorphism Groups by Brendan D. McKay (users.cecs.anu.edu.au/~bdm/nauty)
  sassy 1.1            Symmetry preprocessor by Markus Anders (github.com/markusa4/sassy)
  Ipopt 3.14.17        Interior Point Optimizer developed by A. Waechter et.al. (github.com/coin-or/Ipopt)

reading user parameter file </home/admsys/SCIP/SCIPOptSuite-9.2.1-Linux/only_time.set>

read problem </home/admsys/SCIP/SCIPOptSuite-9.2.1-Linux/inputs/new_no_tr/order_dag/dag309_default_input.lp>
============

original problem has 3742 variables (3698 bin, 44 int, 0 impl, 0 cont) and 9669 constraints

solve problem
=============

presolving:
(round 1, fast)       1280 del vars, 2319 del conss, 0 add conss, 289 chg bounds, 840 chg sides, 1680 chg coeffs, 0 upgd conss, 0 impls, 2632 clqs
(round 2, fast)       1280 del vars, 2381 del conss, 0 add conss, 316 chg bounds, 1163 chg sides, 2645 chg coeffs, 0 upgd conss, 0 impls, 2632 clqs
(round 3, fast)       1280 del vars, 2381 del conss, 0 add conss, 327 chg bounds, 1380 chg sides, 3312 chg coeffs, 0 upgd conss, 0 impls, 2632 clqs
(round 4, fast)       1280 del vars, 2381 del conss, 0 add conss, 336 chg bounds, 1496 chg sides, 3698 chg coeffs, 0 upgd conss, 0 impls, 2632 clqs
(round 5, fast)       1280 del vars, 2381 del conss, 0 add conss, 338 chg bounds, 1560 chg sides, 3865 chg coeffs, 0 upgd conss, 0 impls, 2632 clqs
(round 6, fast)       1280 del vars, 2381 del conss, 0 add conss, 338 chg bounds, 1566 chg sides, 3872 chg coeffs, 0 upgd conss, 0 impls, 2632 clqs
   (0.1s) running MILP presolver
   (0.5s) MILP presolver (92 rounds): 367 aggregations, 815 fixings, 66 bound changes
(round 7, medium)     2462 del vars, 9669 del conss, 3833 add conss, 405 chg bounds, 1566 chg sides, 3872 chg coeffs, 0 upgd conss, 0 impls, 1150 clqs
(round 8, fast)       2465 del vars, 9675 del conss, 3833 add conss, 405 chg bounds, 1631 chg sides, 3937 chg coeffs, 0 upgd conss, 0 impls, 1279 clqs
(round 9, exhaustive) 2465 del vars, 9681 del conss, 3833 add conss, 405 chg bounds, 1631 chg sides, 3937 chg coeffs, 0 upgd conss, 0 impls, 1279 clqs
(round 10, exhaustive) 2466 del vars, 9683 del conss, 3833 add conss, 405 chg bounds, 1631 chg sides, 3937 chg coeffs, 2874 upgd conss, 0 impls, 1277 clqs
(round 11, exhaustive) 2466 del vars, 11233 del conss, 4348 add conss, 405 chg bounds, 1631 chg sides, 3937 chg coeffs, 2874 upgd conss, 0 impls, 1277 clqs
   (0.9s) probing: 1000/1233 (81.1%) - 0 fixings, 0 aggregations, 11418 implications, 0 bound changes
   (0.9s) probing: 1001/1233 (81.2%) - 0 fixings, 0 aggregations, 11439 implications, 0 bound changes
   (0.9s) probing aborted: 1000/1000 successive useless probings
   (0.9s) symmetry computation started: requiring (bin +, int +, cont +), (fixed: bin -, int -, cont -)
   (0.9s) no symmetry present (symcode time: 0.00)
presolving (12 rounds: 12 fast, 5 medium, 4 exhaustive):
 2466 deleted vars, 11233 deleted constraints, 4348 added constraints, 405 tightened bounds, 0 added holes, 1631 changed sides, 3937 changed coefficients
 7368 implications, 5882 cliques
presolved problem has 1276 variables (1233 bin, 43 int, 0 impl, 0 cont) and 2784 constraints
    297 constraints of type <varbound>
    242 constraints of type <setppc>
    515 constraints of type <and>
    945 constraints of type <linear>
    785 constraints of type <logicor>
transformed objective value is always integral (scale: 1)
Presolving Time: 0.88

 time | node  | left  |LP iter|LP it/n|mem/heur|mdpt |vars |cons |rows |cuts |sepa|confs|strbr|  dualbound   | primalbound  |  gap   | compl. 
p 1.0s|     1 |     0 |     0 |     - |shiftand|   0 |1276 |2808 |3299 |   0 |  0 |  23 |   0 | 7.864320e+05 | 1.605632e+06 | 104.17%| unknown
  2.6s|     1 |     0 |  9609 |     - |    36M |   0 |1276 |2808 |3299 |   0 |  0 |  23 |   0 | 7.889105e+05 | 1.605632e+06 | 103.53%| unknown
L 2.7s|     1 |     0 |  9611 |     - |undercov|   0 |1276 |2818 |3299 |   0 |  0 |  33 |   0 | 7.889110e+05 | 1.425408e+06 |  80.68%| unknown
  2.7s|     1 |     0 |  9611 |     - |    36M |   0 |1276 |2818 |3299 |   0 |  0 |  33 |   0 | 7.889110e+05 | 1.425408e+06 |  80.68%| unknown
  2.7s|     1 |     0 |  9611 |     - |    36M |   0 |1276 |2818 |3299 |   0 |  0 |  33 |   0 | 7.889110e+05 | 1.425408e+06 |  80.68%| unknown
* 4.7s|     1 |     0 |  9611 |     - |    LP  |   0 |1276 |2818 |3299 |   0 |  0 |  33 |   0 | 7.889110e+05 | 1.294336e+06 |  64.07%| unknown
  7.6s|     1 |     0 | 23529 |     - |    37M |   0 |1276 |2827 |3410 | 118 |  1 |  33 |   0 | 8.022408e+05 | 1.294336e+06 |  61.34%| unknown
  7.6s|     1 |     0 | 23530 |     - |    37M |   0 |1276 |2827 |3409 | 118 |  1 |  33 |   0 | 8.022410e+05 | 1.294336e+06 |  61.34%| unknown
 10.8s|     1 |     0 | 32574 |     - |    38M |   0 |1276 |2827 |3485 | 194 |  2 |  33 |   0 | 8.056314e+05 | 1.294336e+06 |  60.66%| unknown
 10.8s|     1 |     0 | 32575 |     - |    38M |   0 |1276 |2827 |3481 | 194 |  2 |  33 |   0 | 8.056320e+05 | 1.294336e+06 |  60.66%| unknown
 15.9s|     1 |     0 | 48196 |     - |    38M |   0 |1276 |2827 |3542 | 255 |  3 |  33 |   0 | 8.086712e+05 | 1.294336e+06 |  60.06%| unknown
 15.9s|     1 |     0 | 48198 |     - |    38M |   0 |1276 |2829 |3539 | 255 |  3 |  35 |   0 | 8.086720e+05 | 1.294336e+06 |  60.06%| unknown
 20.9s|     1 |     0 | 62675 |     - |    39M |   0 |1276 |2829 |3577 | 293 |  4 |  35 |   0 | 8.099869e+05 | 1.294336e+06 |  59.80%| unknown
 20.9s|     1 |     0 | 62679 |     - |    39M |   0 |1276 |2829 |3573 | 293 |  4 |  35 |   0 | 8.099870e+05 | 1.294336e+06 |  59.80%| unknown
 41.7s|     1 |     0 |114582 |     - |    41M |   0 |1276 |2829 |3598 | 318 |  5 |  35 |   0 | 8.108434e+05 | 1.294336e+06 |  59.63%| unknown
 time | node  | left  |LP iter|LP it/n|mem/heur|mdpt |vars |cons |rows |cuts |sepa|confs|strbr|  dualbound   | primalbound  |  gap   | compl. 
 41.7s|     1 |     0 |114583 |     - |    41M |   0 |1276 |2829 |3592 | 318 |  5 |  35 |   0 | 8.108440e+05 | 1.294336e+06 |  59.63%| unknown
 66.8s|     1 |     0 |195940 |     - |    48M |   0 |1276 |2829 |3619 | 345 |  6 |  35 |   0 | 8.116975e+05 | 1.294336e+06 |  59.46%| unknown
 66.8s|     1 |     0 |195941 |     - |    48M |   0 |1276 |2829 |3612 | 345 |  6 |  35 |   0 | 8.116980e+05 | 1.294336e+06 |  59.46%| unknown
 70.0s|     1 |     0 |205478 |     - |    51M |   0 |1276 |2829 |3649 | 382 |  7 |  35 |   0 | 8.117067e+05 | 1.294336e+06 |  59.46%| unknown
 70.0s|     1 |     0 |205479 |     - |    51M |   0 |1276 |2830 |3646 | 382 |  7 |  36 |   0 | 8.117070e+05 | 1.294336e+06 |  59.46%| unknown
 88.0s|     1 |     0 |253766 |     - |    63M |   0 |1276 |2830 |3568 | 414 |  8 |  36 |   0 | 8.119300e+05 | 1.294336e+06 |  59.41%| unknown
 88.0s|     1 |     0 |253767 |     - |    63M |   0 |1276 |2831 |3559 | 414 |  8 |  37 |   0 | 8.119300e+05 | 1.294336e+06 |  59.41%| unknown
 92.2s|     1 |     0 |265919 |     - |    64M |   0 |1276 |2831 |3586 | 441 |  9 |  37 |   0 | 8.121574e+05 | 1.294336e+06 |  59.37%| unknown
 92.2s|     1 |     0 |265920 |     - |    64M |   0 |1276 |2832 |3582 | 441 |  9 |  38 |   0 | 8.121580e+05 | 1.294336e+06 |  59.37%| unknown
 98.5s|     1 |     0 |285721 |     - |    65M |   0 |1276 |2832 |3618 | 477 | 10 |  38 |   0 | 8.125616e+05 | 1.294336e+06 |  59.29%| unknown
 98.6s|     1 |     0 |285725 |     - |    65M |   0 |1276 |2833 |3612 | 477 | 10 |  39 |   0 | 8.125620e+05 | 1.294336e+06 |  59.29%| unknown
  100s|     1 |     0 |296055 |     - |    65M |   0 |1276 |2833 |3594 | 503 | 11 |  39 |   0 | 8.150810e+05 | 1.294336e+06 |  58.80%| unknown
  100s|     1 |     0 |296056 |     - |    65M |   0 |1276 |2833 |3589 | 503 | 11 |  39 |   0 | 8.150810e+05 | 1.294336e+06 |  58.80%| unknown
  103s|     1 |     0 |307835 |     - |    66M |   0 |1276 |2833 |3626 | 540 | 12 |  39 |   0 | 8.167519e+05 | 1.294336e+06 |  58.47%| unknown
  103s|     1 |     0 |307836 |     - |    66M |   0 |1276 |2833 |3625 | 540 | 12 |  39 |   0 | 8.167520e+05 | 1.294336e+06 |  58.47%| unknown
 time | node  | left  |LP iter|LP it/n|mem/heur|mdpt |vars |cons |rows |cuts |sepa|confs|strbr|  dualbound   | primalbound  |  gap   | compl. 
  104s|     1 |     0 |317794 |     - |    66M |   0 |1276 |2833 |3650 | 565 | 13 |  39 |   0 | 8.179983e+05 | 1.294336e+06 |  58.23%| unknown
  104s|     1 |     0 |317795 |     - |    66M |   0 |1276 |2833 |3649 | 565 | 13 |  39 |   0 | 8.179990e+05 | 1.294336e+06 |  58.23%| unknown
  107s|     1 |     0 |330864 |     - |    67M |   0 |1276 |2832 |3605 | 605 | 14 |  39 |   0 | 8.192297e+05 | 1.294336e+06 |  57.99%| unknown
  107s|     1 |     0 |330866 |     - |    67M |   0 |1276 |2833 |3603 | 605 | 14 |  40 |   0 | 8.192300e+05 | 1.294336e+06 |  57.99%| unknown
  109s|     1 |     0 |341370 |     - |    67M |   0 |1276 |2833 |3636 | 638 | 15 |  40 |   0 | 8.206858e+05 | 1.294336e+06 |  57.71%| unknown
  109s|     1 |     0 |341371 |     - |    67M |   0 |1276 |2833 |3634 | 638 | 15 |  40 |   0 | 8.206860e+05 | 1.294336e+06 |  57.71%| unknown
  111s|     1 |     0 |352260 |     - |    67M |   0 |1276 |2833 |3680 | 684 | 16 |  40 |   0 | 8.219176e+05 | 1.294336e+06 |  57.48%| unknown
  111s|     1 |     0 |352261 |     - |    67M |   0 |1276 |2833 |3680 | 684 | 16 |  40 |   0 | 8.219180e+05 | 1.294336e+06 |  57.48%| unknown
  115s|     1 |     0 |368525 |     - |    68M |   0 |1276 |2833 |3636 | 725 | 17 |  40 |   0 | 8.229653e+05 | 1.294336e+06 |  57.28%| unknown
  115s|     1 |     0 |368526 |     - |    68M |   0 |1276 |2833 |3636 | 725 | 17 |  40 |   0 | 8.229660e+05 | 1.294336e+06 |  57.28%| unknown
  117s|     1 |     0 |379742 |     - |    68M |   0 |1276 |2833 |3669 | 758 | 18 |  40 |   0 | 8.238503e+05 | 1.294336e+06 |  57.11%| unknown
  117s|     1 |     0 |379743 |     - |    68M |   0 |1276 |2834 |3668 | 758 | 18 |  41 |   0 | 8.238510e+05 | 1.294336e+06 |  57.11%| unknown
  119s|     1 |     0 |389055 |     - |    69M |   0 |1276 |2834 |3698 | 788 | 19 |  41 |   0 | 8.246800e+05 | 1.294336e+06 |  56.95%| unknown
  119s|     1 |     0 |389057 |     - |    69M |   0 |1276 |2837 |3698 | 788 | 19 |  44 |   0 | 8.246810e+05 | 1.294336e+06 |  56.95%| unknown
  120s|     1 |     0 |396370 |     - |    69M |   0 |1276 |2837 |3625 | 815 | 20 |  44 |   0 | 8.254216e+05 | 1.294336e+06 |  56.81%| unknown
 time | node  | left  |LP iter|LP it/n|mem/heur|mdpt |vars |cons |rows |cuts |sepa|confs|strbr|  dualbound   | primalbound  |  gap   | compl. 
  120s|     1 |     0 |396371 |     - |    69M |   0 |1276 |2837 |3625 | 815 | 20 |  44 |   0 | 8.254220e+05 | 1.294336e+06 |  56.81%| unknown
  121s|     1 |     0 |405601 |     - |    69M |   0 |1276 |2837 |3649 | 839 | 21 |  44 |   0 | 8.260868e+05 | 1.294336e+06 |  56.68%| unknown
  121s|     1 |     0 |405602 |     - |    69M |   0 |1276 |2837 |3649 | 839 | 21 |  44 |   0 | 8.260870e+05 | 1.294336e+06 |  56.68%| unknown
  124s|     1 |     0 |418580 |     - |    69M |   0 |1276 |2837 |3677 | 867 | 22 |  44 |   0 | 8.266862e+05 | 1.294336e+06 |  56.57%| unknown
  124s|     1 |     0 |418581 |     - |    69M |   0 |1276 |2838 |3677 | 867 | 22 |  45 |   0 | 8.266870e+05 | 1.294336e+06 |  56.57%| unknown
  126s|     1 |     0 |429124 |     - |    69M |   0 |1276 |2838 |3620 | 892 | 23 |  45 |   0 | 8.272300e+05 | 1.294336e+06 |  56.47%| unknown
  126s|     1 |     0 |429125 |     - |    69M |   0 |1276 |2838 |3620 | 892 | 23 |  45 |   0 | 8.272300e+05 | 1.294336e+06 |  56.47%| unknown
  127s|     1 |     0 |438709 |     - |    69M |   0 |1276 |2838 |3653 | 925 | 24 |  45 |   0 | 8.277264e+05 | 1.294336e+06 |  56.37%| unknown
  127s|     1 |     0 |438710 |     - |    69M |   0 |1276 |2839 |3653 | 925 | 24 |  46 |   0 | 8.277270e+05 | 1.294336e+06 |  56.37%| unknown
  129s|     1 |     0 |450209 |     - |    69M |   0 |1276 |2839 |3683 | 955 | 25 |  46 |   0 | 8.281823e+05 | 1.294336e+06 |  56.29%| unknown
  129s|     1 |     0 |450211 |     - |    69M |   0 |1276 |2842 |3683 | 955 | 25 |  49 |   0 | 8.281830e+05 | 1.294336e+06 |  56.29%| unknown
  131s|     1 |     0 |459957 |     - |    69M |   0 |1276 |2842 |3637 | 984 | 26 |  49 |   0 | 8.286017e+05 | 1.294336e+06 |  56.21%| unknown
  131s|     1 |     0 |459958 |     - |    69M |   0 |1276 |2842 |3637 | 984 | 26 |  49 |   0 | 8.286020e+05 | 1.294336e+06 |  56.21%| unknown
  133s|     1 |     0 |469514 |     - |    69M |   0 |1276 |2842 |3669 |1016 | 27 |  49 |   0 | 8.289883e+05 | 1.294336e+06 |  56.13%| unknown
  133s|     1 |     0 |469515 |     - |    69M |   0 |1276 |2842 |3669 |1016 | 27 |  49 |   0 | 8.289890e+05 | 1.294336e+06 |  56.13%| unknown
 time | node  | left  |LP iter|LP it/n|mem/heur|mdpt |vars |cons |rows |cuts |sepa|confs|strbr|  dualbound   | primalbound  |  gap   | compl. 
  134s|     1 |     0 |479988 |     - |    69M |   0 |1276 |2842 |3704 |1051 | 28 |  49 |   0 | 8.293465e+05 | 1.294336e+06 |  56.07%| unknown
  134s|     1 |     0 |479989 |     - |    69M |   0 |1276 |2844 |3704 |1051 | 28 |  51 |   0 | 8.293470e+05 | 1.294336e+06 |  56.07%| unknown
  137s|     1 |     0 |491803 |     - |    69M |   0 |1276 |2844 |3654 |1083 | 29 |  51 |   0 | 8.296786e+05 | 1.294336e+06 |  56.00%| unknown
  137s|     1 |     0 |491804 |     - |    69M |   0 |1276 |2844 |3654 |1083 | 29 |  51 |   0 | 8.296790e+05 | 1.294336e+06 |  56.00%| unknown
  138s|     1 |     0 |500040 |     - |    69M |   0 |1276 |2844 |3678 |1107 | 30 |  51 |   0 | 8.299871e+05 | 1.294336e+06 |  55.95%| unknown
  138s|     1 |     0 |500041 |     - |    69M |   0 |1276 |2846 |3678 |1107 | 30 |  53 |   0 | 8.299880e+05 | 1.294336e+06 |  55.95%| unknown
  139s|     1 |     0 |506320 |     - |    69M |   0 |1276 |2846 |3704 |1133 | 31 |  53 |   0 | 8.302750e+05 | 1.294336e+06 |  55.89%| unknown
  139s|     1 |     0 |506321 |     - |    69M |   0 |1276 |2848 |3704 |1133 | 31 |  55 |   0 | 8.302750e+05 | 1.294336e+06 |  55.89%| unknown
  141s|     1 |     0 |514220 |     - |    69M |   0 |1276 |2848 |3664 |1166 | 32 |  55 |   0 | 8.305427e+05 | 1.294336e+06 |  55.84%| unknown
  141s|     1 |     0 |514221 |     - |    69M |   0 |1276 |2848 |3664 |1166 | 32 |  55 |   0 | 8.305430e+05 | 1.294336e+06 |  55.84%| unknown
  142s|     1 |     0 |524499 |     - |    69M |   0 |1276 |2848 |3699 |1201 | 33 |  55 |   0 | 8.307930e+05 | 1.294336e+06 |  55.80%| unknown
  142s|     1 |     0 |524500 |     - |    69M |   0 |1276 |2848 |3699 |1201 | 33 |  55 |   0 | 8.307930e+05 | 1.294336e+06 |  55.80%| unknown
  144s|     1 |     0 |531950 |     - |    69M |   0 |1276 |2848 |3730 |1232 | 34 |  55 |   0 | 8.310268e+05 | 1.294336e+06 |  55.75%| unknown
  144s|     1 |     0 |531951 |     - |    69M |   0 |1276 |2848 |3730 |1232 | 34 |  55 |   0 | 8.310270e+05 | 1.294336e+06 |  55.75%| unknown
  146s|     1 |     0 |544578 |     - |    69M |   0 |1276 |2848 |3687 |1261 | 35 |  55 |   0 | 8.312459e+05 | 1.294336e+06 |  55.71%| unknown
 time | node  | left  |LP iter|LP it/n|mem/heur|mdpt |vars |cons |rows |cuts |sepa|confs|strbr|  dualbound   | primalbound  |  gap   | compl. 
  146s|     1 |     0 |544579 |     - |    70M |   0 |1276 |2848 |3687 |1261 | 35 |  55 |   0 | 8.312460e+05 | 1.294336e+06 |  55.71%| unknown
  147s|     1 |     0 |549201 |     - |    70M |   0 |1276 |2848 |3703 |1277 | 36 |  55 |   0 | 8.314512e+05 | 1.294336e+06 |  55.67%| unknown
  147s|     1 |     0 |549202 |     - |    70M |   0 |1276 |2848 |3703 |1277 | 36 |  55 |   0 | 8.314520e+05 | 1.294336e+06 |  55.67%| unknown
  148s|     1 |     0 |555495 |     - |    70M |   0 |1276 |2848 |3729 |1303 | 37 |  55 |   0 | 8.316446e+05 | 1.294336e+06 |  55.64%| unknown
  148s|     1 |     0 |555496 |     - |    70M |   0 |1276 |2848 |3729 |1303 | 37 |  55 |   0 | 8.316450e+05 | 1.294336e+06 |  55.64%| unknown
  150s|     1 |     0 |565953 |     - |    70M |   0 |1276 |2848 |3683 |1329 | 38 |  55 |   0 | 8.318259e+05 | 1.294336e+06 |  55.60%| unknown
  150s|     1 |     0 |565954 |     - |    70M |   0 |1276 |2848 |3683 |1329 | 38 |  55 |   0 | 8.318260e+05 | 1.294336e+06 |  55.60%| unknown
  151s|     1 |     0 |571836 |     - |    70M |   0 |1276 |2848 |3707 |1353 | 39 |  55 |   0 | 8.319961e+05 | 1.294336e+06 |  55.57%| unknown
  151s|     1 |     0 |571837 |     - |    70M |   0 |1276 |2848 |3707 |1353 | 39 |  55 |   0 | 8.319970e+05 | 1.294336e+06 |  55.57%| unknown
  152s|     1 |     0 |577361 |     - |    70M |   0 |1276 |2848 |3734 |1380 | 40 |  55 |   0 | 8.321570e+05 | 1.294336e+06 |  55.54%| unknown
  152s|     1 |     0 |577363 |     - |    70M |   0 |1276 |2848 |3734 |1380 | 40 |  55 |   0 | 8.321580e+05 | 1.294336e+06 |  55.54%| unknown
  154s|     1 |     0 |588690 |     - |    70M |   0 |1276 |2848 |3689 |1401 | 41 |  55 |   0 | 8.323087e+05 | 1.294336e+06 |  55.51%| unknown
  154s|     1 |     0 |588691 |     - |    70M |   0 |1276 |2848 |3689 |1401 | 41 |  55 |   0 | 8.323090e+05 | 1.294336e+06 |  55.51%| unknown
  156s|     1 |     0 |599744 |     - |    70M |   0 |1276 |2848 |3708 |1420 | 42 |  55 |   0 | 8.324511e+05 | 1.294336e+06 |  55.48%| unknown
  156s|     1 |     0 |599752 |     - |    70M |   0 |1276 |2849 |3708 |1420 | 42 |  56 |   0 | 8.324520e+05 | 1.294336e+06 |  55.48%| unknown
 time | node  | left  |LP iter|LP it/n|mem/heur|mdpt |vars |cons |rows |cuts |sepa|confs|strbr|  dualbound   | primalbound  |  gap   | compl. 
  157s|     1 |     0 |605113 |     - |    70M |   0 |1276 |2849 |3727 |1439 | 43 |  56 |   0 | 8.325860e+05 | 1.294336e+06 |  55.46%| unknown
  157s|     1 |     0 |605114 |     - |    70M |   0 |1276 |2849 |3727 |1439 | 43 |  56 |   0 | 8.325860e+05 | 1.294336e+06 |  55.46%| unknown
  158s|     1 |     0 |612419 |     - |    70M |   0 |1276 |2849 |3691 |1464 | 44 |  56 |   0 | 8.327125e+05 | 1.294336e+06 |  55.44%| unknown
  158s|     1 |     0 |612421 |     - |    70M |   0 |1276 |2849 |3691 |1464 | 44 |  56 |   0 | 8.327130e+05 | 1.294336e+06 |  55.44%| unknown
  159s|     1 |     0 |620155 |     - |    70M |   0 |1276 |2849 |3712 |1485 | 45 |  56 |   0 | 8.328325e+05 | 1.294336e+06 |  55.41%| unknown
  159s|     1 |     0 |620156 |     - |    70M |   0 |1276 |2849 |3712 |1485 | 45 |  56 |   0 | 8.328330e+05 | 1.294336e+06 |  55.41%| unknown
  161s|     1 |     0 |627947 |     - |    70M |   0 |1276 |2849 |3737 |1510 | 46 |  56 |   0 | 8.329459e+05 | 1.294336e+06 |  55.39%| unknown
  161s|     1 |     0 |627948 |     - |    70M |   0 |1276 |2849 |3737 |1510 | 46 |  56 |   0 | 8.329460e+05 | 1.294336e+06 |  55.39%| unknown
  162s|     1 |     0 |636088 |     - |    70M |   0 |1276 |2849 |3701 |1532 | 47 |  56 |   0 | 8.330528e+05 | 1.294336e+06 |  55.37%| unknown
  162s|     1 |     0 |636089 |     - |    70M |   0 |1276 |2849 |3701 |1532 | 47 |  56 |   0 | 8.330530e+05 | 1.294336e+06 |  55.37%| unknown
  164s|     1 |     0 |646349 |     - |    70M |   0 |1276 |2849 |3720 |1551 | 48 |  56 |   0 | 8.331541e+05 | 1.294336e+06 |  55.35%| unknown
  164s|     1 |     0 |646350 |     - |    70M |   0 |1276 |2850 |3720 |1551 | 48 |  57 |   0 | 8.331550e+05 | 1.294336e+06 |  55.35%| unknown
  165s|     1 |     0 |654791 |     - |    70M |   0 |1276 |2850 |3741 |1572 | 49 |  57 |   0 | 8.332507e+05 | 1.294336e+06 |  55.34%| unknown
  165s|     1 |     0 |654792 |     - |    70M |   0 |1276 |2854 |3741 |1572 | 49 |  61 |   0 | 8.332510e+05 | 1.294336e+06 |  55.34%| unknown
  166s|     1 |     0 |662388 |     - |    70M |   0 |1276 |2854 |3700 |1592 | 50 |  61 |   0 | 8.333417e+05 | 1.294336e+06 |  55.32%| unknown
 time | node  | left  |LP iter|LP it/n|mem/heur|mdpt |vars |cons |rows |cuts |sepa|confs|strbr|  dualbound   | primalbound  |  gap   | compl. 
  166s|     1 |     0 |662389 |     - |    70M |   0 |1276 |2854 |3700 |1592 | 50 |  61 |   0 | 8.333420e+05 | 1.294336e+06 |  55.32%| unknown
  168s|     1 |     0 |669627 |     - |    70M |   0 |1276 |2854 |3722 |1614 | 51 |  61 |   0 | 8.334279e+05 | 1.294336e+06 |  55.30%| unknown
  168s|     1 |     0 |669628 |     - |    70M |   0 |1276 |2855 |3722 |1614 | 51 |  62 |   0 | 8.334280e+05 | 1.294336e+06 |  55.30%| unknown
  169s|     1 |     0 |676005 |     - |    70M |   0 |1276 |2855 |3748 |1640 | 52 |  62 |   0 | 8.335095e+05 | 1.294336e+06 |  55.29%| unknown
  169s|     1 |     0 |676009 |     - |    70M |   0 |1276 |2856 |3748 |1640 | 52 |  63 |   0 | 8.335100e+05 | 1.294336e+06 |  55.29%| unknown
  170s|     1 |     0 |685195 |     - |    70M |   0 |1276 |2856 |3707 |1659 | 53 |  63 |   0 | 8.335873e+05 | 1.294336e+06 |  55.27%| unknown
  170s|     1 |     0 |685197 |     - |    70M |   0 |1276 |2857 |3707 |1659 | 53 |  64 |   0 | 8.335880e+05 | 1.294336e+06 |  55.27%| unknown
  171s|     1 |     0 |689108 |     - |    70M |   0 |1276 |2857 |3727 |1679 | 54 |  64 |   0 | 8.336613e+05 | 1.294336e+06 |  55.26%| unknown
  171s|     1 |     0 |689110 |     - |    70M |   0 |1276 |2860 |3727 |1679 | 54 |  67 |   0 | 8.336620e+05 | 1.294336e+06 |  55.26%| unknown
  172s|     1 |     0 |695061 |     - |    70M |   0 |1276 |2860 |3747 |1699 | 55 |  67 |   0 | 8.337316e+05 | 1.294336e+06 |  55.25%| unknown
  172s|     1 |     0 |695062 |     - |    70M |   0 |1276 |2860 |3747 |1699 | 55 |  67 |   0 | 8.337320e+05 | 1.294336e+06 |  55.25%| unknown
  173s|     1 |     0 |700866 |     - |    70M |   0 |1276 |2860 |3711 |1722 | 56 |  67 |   0 | 8.337981e+05 | 1.294336e+06 |  55.23%| unknown
  173s|     1 |     0 |700869 |     - |    70M |   0 |1276 |2860 |3711 |1722 | 56 |  67 |   0 | 8.337990e+05 | 1.294336e+06 |  55.23%| unknown
  174s|     1 |     0 |707889 |     - |    70M |   0 |1276 |2860 |3728 |1739 | 57 |  67 |   0 | 8.338618e+05 | 1.294336e+06 |  55.22%| unknown
  174s|     1 |     0 |707891 |     - |    70M |   0 |1276 |2861 |3728 |1739 | 57 |  68 |   0 | 8.338620e+05 | 1.294336e+06 |  55.22%| unknown
 time | node  | left  |LP iter|LP it/n|mem/heur|mdpt |vars |cons |rows |cuts |sepa|confs|strbr|  dualbound   | primalbound  |  gap   | compl. 
  175s|     1 |     0 |714177 |     - |    70M |   0 |1276 |2861 |3746 |1757 | 58 |  68 |   0 | 8.339217e+05 | 1.294336e+06 |  55.21%| unknown
  175s|     1 |     0 |714179 |     - |    70M |   0 |1276 |2862 |3746 |1757 | 58 |  69 |   0 | 8.339220e+05 | 1.294336e+06 |  55.21%| unknown
  176s|     1 |     0 |721527 |     - |    70M |   0 |1276 |2862 |3717 |1783 | 59 |  69 |   0 | 8.339787e+05 | 1.294336e+06 |  55.20%| unknown
  176s|     1 |     0 |721530 |     - |    70M |   0 |1276 |2862 |3717 |1783 | 59 |  69 |   0 | 8.339790e+05 | 1.294336e+06 |  55.20%| unknown
  178s|     1 |     0 |728205 |     - |    70M |   0 |1276 |2862 |3747 |1813 | 60 |  69 |   0 | 8.340329e+05 | 1.294336e+06 |  55.19%| unknown
  178s|     1 |     0 |728206 |     - |    70M |   0 |1276 |2864 |3747 |1813 | 60 |  71 |   0 | 8.340330e+05 | 1.294336e+06 |  55.19%| unknown
  179s|     1 |     0 |736722 |     - |    70M |   0 |1276 |2864 |3767 |1833 | 61 |  71 |   0 | 8.340843e+05 | 1.294336e+06 |  55.18%| unknown
  179s|     1 |     0 |736723 |     - |    70M |   0 |1276 |2864 |3767 |1833 | 61 |  71 |   0 | 8.340850e+05 | 1.294336e+06 |  55.18%| unknown
  179s|     1 |     0 |736723 |     - |    70M |   0 |1276 |2863 |3767 |1833 | 61 |  71 |   0 | 8.340850e+05 | 1.294336e+06 |  55.18%| unknown
  180s|     1 |     0 |741557 |     - |    70M |   0 |1276 |2863 |3728 |1851 | 62 |  71 |   0 | 8.341338e+05 | 1.294336e+06 |  55.17%| unknown
  180s|     1 |     0 |741561 |     - |    70M |   0 |1276 |2863 |3728 |1851 | 62 |  71 |   0 | 8.341340e+05 | 1.294336e+06 |  55.17%| unknown
  181s|     1 |     0 |749366 |     - |    70M |   0 |1276 |2863 |3747 |1870 | 63 |  71 |   0 | 8.341804e+05 | 1.294336e+06 |  55.16%| unknown
  181s|     1 |     0 |749367 |     - |    70M |   0 |1276 |2863 |3747 |1870 | 63 |  71 |   0 | 8.341810e+05 | 1.294336e+06 |  55.16%| unknown
  182s|     1 |     0 |754876 |     - |    70M |   0 |1276 |2863 |3772 |1895 | 64 |  71 |   0 | 8.342252e+05 | 1.294336e+06 |  55.15%| unknown
  182s|     1 |     0 |754878 |     - |    70M |   0 |1276 |2864 |3772 |1895 | 64 |  72 |   0 | 8.342260e+05 | 1.294336e+06 |  55.15%| unknown
 time | node  | left  |LP iter|LP it/n|mem/heur|mdpt |vars |cons |rows |cuts |sepa|confs|strbr|  dualbound   | primalbound  |  gap   | compl. 
  183s|     1 |     0 |759734 |     - |    70M |   0 |1276 |2864 |3731 |1916 | 65 |  72 |   0 | 8.342680e+05 | 1.294336e+06 |  55.15%| unknown
  183s|     1 |     0 |759735 |     - |    70M |   0 |1276 |2864 |3731 |1916 | 65 |  72 |   0 | 8.342690e+05 | 1.294336e+06 |  55.15%| unknown
  184s|     1 |     0 |763939 |     - |    70M |   0 |1276 |2864 |3749 |1934 | 66 |  72 |   0 | 8.343090e+05 | 1.294336e+06 |  55.14%| unknown
  184s|     1 |     0 |763940 |     - |    71M |   0 |1276 |2865 |3749 |1934 | 66 |  73 |   0 | 8.343090e+05 | 1.294336e+06 |  55.14%| unknown
  185s|     1 |     0 |771019 |     - |    71M |   0 |1276 |2865 |3769 |1954 | 67 |  73 |   0 | 8.343471e+05 | 1.294336e+06 |  55.13%| unknown
  185s|     1 |     0 |771021 |     - |    71M |   0 |1276 |2866 |3769 |1954 | 67 |  74 |   0 | 8.343480e+05 | 1.294336e+06 |  55.13%| unknown
  186s|     1 |     0 |777474 |     - |    71M |   0 |1276 |2866 |3742 |1977 | 68 |  74 |   0 | 8.343843e+05 | 1.294336e+06 |  55.12%| unknown
  186s|     1 |     0 |777476 |     - |    71M |   0 |1276 |2868 |3742 |1977 | 68 |  76 |   0 | 8.343850e+05 | 1.294336e+06 |  55.12%| unknown
  187s|     1 |     0 |784620 |     - |    71M |   0 |1276 |2868 |3762 |1997 | 69 |  76 |   0 | 8.344196e+05 | 1.294336e+06 |  55.12%| unknown
  188s|     1 |     0 |784622 |     - |    71M |   0 |1276 |2868 |3762 |1997 | 69 |  76 |   0 | 8.344200e+05 | 1.294336e+06 |  55.12%| unknown
  189s|     1 |     0 |791584 |     - |    71M |   0 |1276 |2868 |3783 |2018 | 70 |  76 |   0 | 8.344529e+05 | 1.294336e+06 |  55.11%| unknown
  189s|     1 |     0 |791586 |     - |    71M |   0 |1276 |2869 |3783 |2018 | 70 |  77 |   0 | 8.344530e+05 | 1.294336e+06 |  55.11%| unknown
  190s|     1 |     0 |797064 |     - |    71M |   0 |1276 |2869 |3747 |2037 | 71 |  77 |   0 | 8.344844e+05 | 1.294336e+06 |  55.11%| unknown
  190s|     1 |     0 |797066 |     - |    71M |   0 |1276 |2869 |3747 |2037 | 71 |  77 |   0 | 8.344850e+05 | 1.294336e+06 |  55.11%| unknown
  192s|     1 |     0 |805401 |     - |    71M |   0 |1276 |2869 |3770 |2060 | 72 |  77 |   0 | 8.345149e+05 | 1.294336e+06 |  55.10%| unknown
 time | node  | left  |LP iter|LP it/n|mem/heur|mdpt |vars |cons |rows |cuts |sepa|confs|strbr|  dualbound   | primalbound  |  gap   | compl. 
  192s|     1 |     0 |805403 |     - |    71M |   0 |1276 |2869 |3770 |2060 | 72 |  77 |   0 | 8.345150e+05 | 1.294336e+06 |  55.10%| unknown
  199s|     1 |     2 |830753 |     - |    71M |   0 |1276 |2879 |3770 |2060 | 72 |  87 |  12 | 8.345150e+05 | 1.294336e+06 |  55.10%| unknown
* 200s|     6 |     5 |832653 |5450.0 |    LP  |   5 |1276 |2879 |3450 |2091 |  0 |  87 |  12 | 8.345150e+05 | 1.114112e+06 |  33.50%| unknown
d 202s|     6 |     7 |842390 |7397.4 |pscostdi|   5 |1276 |2893 |3453 |   0 |  2 | 101 |  12 | 8.345150e+05 | 1.097728e+06 |  31.54%| unknown
* 207s|    12 |    11 |850094 |4062.8 |    LP  |   5 |1276 |2901 |3450 |2150 |  0 | 109 |  12 | 8.345150e+05 | 1.048576e+06 |  25.65%| unknown
